Geographic Exponential Decay
80 176 295 142 48 49 79 54 8 269 40 100 27 9 279 108 60 86 119 262 115 126 82 201 208 242 189 224 179 263 186 233 305 288 70 272 67 225 203 112 174 307 124 14 193 72 219 199 184 212 102 80 216 293 259 178 97 276 247 139 206 170 129 19 140 152 76 156 190 21 94 33 248 23 17 155 143 303 298 158 204
p edge 320 321
e 0 219 32.0
e 1 63 3.0
e 1 0 5.0
e 2 106 3.0
e 2 1 1.0
e 3 302 1.0
e 3 2 5.0
e 4 99 9.0
e 4 3 10.0
e 5 310 3.0
e 5 4 2.0
e 6 101 3.0
e 6 5 6.0
e 7 115 10.0
e 7 6 12.0
e 8 294 85.0
e 8 77 49.0
e 8 37 65.0
e 8 7 25.0
e 9 199 14.0
e 9 45 90.0
e 9 209 23.0
e 9 8 90.0
e 10 165 1.0
e 10 9 50.0
e 11 220 2.0
e 11 10 1.0
e 12 175 41.0
e 12 11 1.0
e 13 245 1.0
e 13 12 1.0
e 14 271 77.0
e 14 230 23.0
e 14 111 59.0
e 14 13 21.0
e 15 178 2.0
e 15 14 58.0
e 16 40 72.0
e 16 15 2.0
e 17 18 6.0
e 17 110 30.0
e 17 104 73.0
e 17 16 27.0
e 19 168 87.0
e 19 138 40.0
e 19 199 96.0
e 20 57 2.0
e 20 17 23.0
e 21 147 5.0
e 21 263 43.0
e 21 264 37.0
e 22 177 17.0
e 22 20 1.0
e 23 24 18.0
e 23 25 47.0
e 23 214 100.0
e 23 22 23.0
e 26 315 3.0
e 26 23 43.0
e 27 72 85.0
e 27 231 34.0
e 27 124 12.0
e 27 26 91.0
e 28 76 55.0
e 28 27 58.0
e 29 39 1.0
e 29 28 14.0
e 30 103 4.0
e 30 29 1.0
e 31 32 2.0
e 31 30 3.0
e 33 132 78.0
e 33 258 7.0
e 33 316 92.0
e 33 31 65.0
e 34 194 1.0
e 34 33 20.0
e 35 36 9.0
e 35 34 3.0
e 38 69 2.0
e 38 35 6.0
e 40 149 88.0
e 40 128 48.0
e 41 131 6.0
e 41 38 1.0
e 42 145 1.0
e 42 41 3.0
e 43 260 1.0
e 43 42 2.0
e 44 292 2.0
e 44 43 2.0
e 46 235 1.0
e 46 44 1.0
e 47 157 2.0
e 47 46 2.0
e 48 198 90.0
e 48 85 76.0
e 48 272 11.0
e 49 262 48.0
e 49 114 41.0
e 49 78 22.0
e 49 47 11.0
e 50 192 1.0
e 50 49 53.0
e 51 171 1.0
e 51 50 2.0
e 52 216 30.0
e 52 51 5.0
e 53 54 81.0
e 53 52 1.0
e 54 187 43.0
e 54 307 85.0
e 55 91 11.0
e 55 53 8.0
e 56 100 25.0
e 58 160 2.0
e 58 55 7.0
e 59 169 4.0
e 59 58 1.0
e 60 80 16.0
e 60 151 8.0
e 60 259 8.0
e 60 59 37.0
e 61 62 1.0
e 61 60 11.0
e 64 311 16.0
e 64 61 1.0
e 65 261 3.0
e 65 64 1.0
e 66 243 2.0
e 66 65 3.0
e 67 88 19.0
e 67 181 9.0
e 67 87 95.0
e 67 66 51.0
e 68 98 2.0
e 68 67 92.0
e 70 83 46.0
e 70 286 22.0
e 70 246 97.0
e 70 68 26.0
e 71 203 28.0
e 72 120 77.0
e 72 73 96.0
e 74 75 8.0
e 74 70 48.0
e 76 222 86.0
e 76 244 51.0
e 79 112 45.0
e 79 154 72.0
e 79 297 100.0
e 79 74 100.0
e 80 290 52.0
e 80 284 45.0
e 81 109 2.0
e 81 79 11.0
e 82 84 22.0
e 82 86 7.0
e 82 89 8.0
e 86 90 86.0
e 86 247 1.0
e 92 307 10.0
e 93 94 3.0
e 93 81 8.0
e 94 275 82.0
e 94 196 32.0
e 95 262 35.0
e 96 239 1.0
e 96 93 4.0
e 97 100 64.0
e 97 263 56.0
e 97 303 20.0
e 100 229 5.0
e 102 259 78.0
e 102 105 89.0
e 102 170 71.0
e 107 108 57.0
e 108 208 49.0
e 108 112 84.0
e 112 185 29.0
e 113 114 3.0
e 115 158 56.0
e 115 276 86.0
e 116 117 2.0
e 116 96 5.0
e 118 287 3.0
e 118 116 5.0
e 119 285 55.0
e 119 121 3.0
e 119 288 6.0
e 119 118 28.0
e 122 233 53.0
e 122 119 88.0
e 123 124 56.0
e 124 146 1.0
e 125 126 1.0
e 125 122 3.0
e 126 240 80.0
e 126 127 60.0
e 129 265 38.0
e 129 130 8.0
e 129 219 95.0
e 133 262 79.0
e 134 217 2.0
e 134 125 2.0
e 135 170 71.0
e 136 137 16.0
e 136 134 5.0
e 139 242 47.0
e 139 210 32.0
e 139 140 12.0
e 139 136 26.0
e 140 313 29.0
e 140 182 27.0
e 141 142 57.0
e 141 139 45.0
e 142 143 10.0
e 142 232 6.0
e 143 144 99.0
e 143 314 91.0
e 148 298 72.0
e 148 141 1.0
e 150 152 43.0
e 150 148 1.0
e 152 153 39.0
e 152 237 49.0
e 155 317 39.0
e 155 156 6.0
e 155 158 83.0
e 156 158 7.0
e 156 159 79.0
e 161 162 1.0
e 161 150 1.0
e 163 296 1.0
e 163 161 1.0
e 164 166 2.0
e 164 163 2.0
e 167 267 2.0
e 167 164 5.0
e 170 172 68.0
e 173 174 11.0
e 174 175 13.0
e 174 293 34.0
e 176 178 12.0
e 176 179 41.0
e 176 180 80.0
e 178 289 32.0
e 179 223 19.0
e 179 249 22.0
e 183 197 2.0
e 183 167 2.0
e 184 203 65.0
e 184 186 55.0
e 184 201 45.0
e 186 274 93.0
e 186 188 85.0
e 189 190 36.0
e 189 291 11.0
e 189 247 85.0
e 190 191 95.0
e 190 279 95.0
e 193 195 20.0
e 193 199 32.0
e 193 228 90.0
e 200 307 19.0
e 201 312 54.0
e 201 202 80.0
e 203 204 74.0
e 204 205 70.0
e 204 219 68.0
e 206 207 22.0
e 206 208 87.0
e 206 211 81.0
e 208 212 59.0
e 212 301 20.0
e 212 213 88.0
e 215 263 44.0
e 216 247 24.0
e 216 218 4.0
e 221 222 38.0
e 224 225 77.0
e 224 226 25.0
e 224 227 87.0
e 225 229 98.0
e 225 303 3.0
e 233 266 82.0
e 233 318 12.0
e 234 236 1.0
e 234 183 9.0
e 238 268 4.0
e 238 234 1.0
e 241 242 59.0
e 242 248 23.0
e 248 250 61.0
e 248 251 90.0
e 252 253 5.0
e 252 238 2.0
e 254 255 1.0
e 254 252 2.0
e 256 269 95.0
e 257 259 67.0
e 269 288 30.0
e 269 319 60.0
e 270 276 1.0
e 272 273 100.0
e 272 293 71.0
e 276 277 29.0
e 278 279 88.0
e 279 280 68.0
e 281 288 51.0
e 282 283 1.0
e 282 254 1.0
e 293 303 34.0
e 295 298 12.0
e 295 299 21.0
e 295 300 69.0
e 298 304 93.0
e 305 306 12.0
e 305 308 1.0
e 305 309 91.0
e 305 282 58.0
